NAME: toy20_uniform_seed202510283
TYPE: TSP
DIMENSION: 20
EDGE_WEIGHT_TYPE: EUC_2D
NODE_COORD_SECTION
1 203 861
2 889 662
3 33 102
4 599 967
5 488 468
6 874 817
7 110 873
8 943 194
9 2 703
10 316 39
11 416 400
12 64 115
13 192 975
14 858 895
15 482 477
16 155 289
17 635 881
18 90 547
19 124 243
20 860 353
EOF
